p tw 742 1419
1 678
1 679
2 345
2 346
2 499
2 500
2 604
2 605
3 620
3 621
4 693
4 694
5 635
5 636
6 298
6 299
6 709
6 710
7 622
7 623
8 371
8 372
9 276
9 277
9 455
9 456
10 738
10 739
11 544
11 545
12 359
12 360
12 456
12 457
12 529
12 530
13 572
13 573
13 626
13 627
13 683
13 684
14 588
14 589
14 645
14 646
15 380
15 381
15 653
15 654
16 277
16 278
16 457
16 458
16 530
16 531
17 278
17 279
18 406
18 407
19 641
19 642
20 327
20 328
20 467
20 468
20 584
20 585
21 291
21 292
22 111
22 704
22 705
22 729
23 364
23 365
24 373
24 374
24 643
24 644
25 297
25 298
25 555
25 556
25 670
25 671
26 731
26 732
27 513
27 514
28 274
28 275
29 423
29 424
30 295
30 296
30 554
30 555
31 629
31 630
31 684
31 685
32 143
32 338
32 339
32 441
32 487
32 488
33 296
33 297
34 321
34 322
35 660
35 661
36 613
36 614
37 307
37 308
37 445
37 446
37 504
37 505
37 563
37 564
37 732
37 733
38 631
38 632
39 342
39 343
40 399
40 400
41 628
41 629
42 651
42 652
43 432
43 433
43 598
43 599
44 659
44 660
44 706
44 707
45 724
45 725
46 280
46 281
47 615
47 616
48 431
48 432
49 390
49 391
49 665
49 666
50 655
50 656
51 281
51 282
52 275
52 276
52 454
52 455
52 528
52 529
53 407
53 408
54 104
54 346
54 347
54 675
55 369
55 370
55 640
55 641
56 372
56 373
57 667
57 668
58 741
58 742
59 271
59 272
59 521
59 522
60 378
60 379
60 474
60 475
60 546
60 547
61 638
61 639
62 357
62 358
62 618
62 619
63 627
63 628
64 533
64 534
65 435
65 436
66 326
66 327
67 367
67 368
68 398
68 399
69 382
69 383
69 478
69 479
70 710
70 711
71 393
71 394
72 589
72 590
72 646
72 647
73 518
73 519
74 647
74 648
75 415
75 416
75 579
75 580
76 310
76 311
77 515
77 516
78 722
78 723
79 236
79 385
79 386
79 440
79 484
79 485
80 384
80 385
80 703
80 704
81 282
81 283
82 658
82 659
83 394
83 395
84 408
84 409
84 453
84 454
85 508
85 509
86 108
86 223
86 366
86 367
86 468
86 469
86 519
86 742
87 429
87 430
88 334
88 335
88 477
88 478
88 592
88 593
89 713
89 714
90 381
90 382
90 439
90 440
90 479
90 480
90 739
90 740
91 717
91 718
92 636
92 637
93 412
93 413
94 363
94 364
94 536
94 537
95 617
95 618
96 318
96 319
96 460
96 461
96 573
96 574
97 410
97 411
97 621
97 622
98 294
98 295
98 492
98 493
98 553
98 554
99 352
99 353
100 656
100 657
101 405
101 406
101 565
101 566
101 610
101 611
101 677
101 678
102 402
102 403
102 558
102 559
102 672
102 673
102 711
102 712
103 654
103 655
103 700
103 701
104 128
104 233
104 347
104 348
104 501
104 605
104 606
104 675
104 714
105 396
105 397
105 556
105 557
105 671
105 672
105 708
105 709
106 391
106 392
106 493
106 494
106 552
106 553
107 733
107 734
108 519
109 699
109 700
110 657
110 658
110 702
110 703
111 729
112 718
112 719
113 411
113 412
113 575
113 576
114 637
114 638
115 305
115 306
116 433
116 434
116 494
116 495
116 668
116 669
117 354
117 355
117 447
117 448
117 525
117 526
118 325
118 326
118 687
118 688
119 696
119 697
120 362
120 363
121 355
121 356
121 449
121 450
121 527
121 528
122 548
122 549
123 424
123 425
124 331
124 332
125 734
125 735
126 311
126 312
127 600
127 601
128 207
128 349
128 350
128 501
128 606
129 320
129 321
130 302
130 303
131 348
131 349
132 425
132 426
133 388
133 389
133 486
133 487
133 664
133 665
134 379
134 380
135 686
135 687
136 673
136 674
137 619
137 620
138 715
138 716
139 680
139 681
140 503
140 504
141 283
141 284
141 462
141 463
141 535
141 536
142 368
142 369
142 691
142 692
143 404
143 405
143 441
143 564
143 565
143 719
143 720
144 313
144 314
144 569
144 570
145 417
145 418
145 463
145 464
145 580
145 581
146 285
146 286
146 540
146 541
147 314
147 315
147 451
147 452
148 270
148 271
148 442
148 443
148 520
148 521
149 514
149 515
149 534
149 535
149 737
149 738
150 426
150 427
151 387
151 388
151 663
151 664
152 317
152 318
152 571
152 572
153 333
153 334
153 476
153 477
153 512
153 513
153 736
153 737
154 685
154 686
155 301
155 302
155 497
155 498
155 559
155 560
156 676
156 677
157 509
157 510
158 701
158 702
159 312
159 313
159 450
159 451
159 568
159 569
160 539
160 540
160 644
160 645
161 692
161 693
162 383
162 384
162 481
162 482
162 549
162 550
163 578
163 579
163 688
163 689
163 723
163 724
164 661
164 662
165 335
165 336
165 517
165 518
166 356
166 357
167 273
167 274
167 446
167 447
167 523
167 524
168 524
168 525
168 611
168 612
169 358
169 359
170 286
170 287
170 472
170 473
170 542
170 543
171 623
171 624
172 590
172 591
173 632
173 633
174 322
174 323
175 287
175 288
175 473
175 474
175 506
175 507
176 272
176 273
176 444
176 445
176 522
176 523
177 290
177 291
177 475
177 476
177 547
177 548
178 344
178 345
178 498
178 499
178 602
178 603
179 427
179 428
179 727
179 728
180 609
180 610
181 315
181 316
181 570
181 571
182 625
182 626
182 682
182 683
183 350
183 351
184 616
184 617
185 341
185 342
185 495
185 496
185 599
185 600
186 374
186 375
186 541
186 542
187 370
187 371
187 470
187 471
187 538
187 539
188 292
188 293
188 482
188 483
188 550
188 551
189 507
189 508
190 293
190 294
190 488
190 489
191 502
191 503
191 561
191 562
192 418
192 419
192 465
192 466
192 582
192 583
193 365
193 366
193 690
193 691
194 400
194 401
195 510
195 511
196 634
196 635
197 725
197 726
198 669
198 670
199 324
199 325
200 614
200 615
201 309
201 310
202 316
202 317
202 624
202 625
203 329
203 330
204 397
204 398
204 438
204 439
204 496
204 497
204 557
204 558
205 586
205 587
206 332
206 333
206 591
206 592
206 650
206 651
206 697
206 698
207 212
207 436
207 606
208 422
208 423
209 360
209 361
209 458
209 459
209 531
209 532
210 299
210 300
211 306
211 307
211 562
211 563
212 436
212 500
212 501
212 603
212 604
213 279
213 280
213 459
213 460
213 532
213 533
214 726
214 727
215 340
215 341
215 666
215 667
216 721
216 722
217 351
217 352
217 443
217 444
217 607
217 608
218 674
218 675
219 392
219 393
219 491
219 492
219 505
219 506
219 735
219 736
220 511
220 512
221 375
221 376
221 648
221 649
221 695
221 696
222 288
222 289
223 681
223 682
223 742
224 662
224 663
224 705
224 706
225 707
225 708
226 319
226 320
226 574
226 575
227 376
227 377
228 419
228 420
228 466
228 467
228 583
228 584
229 304
229 305
230 413
230 414
230 461
230 462
230 576
230 577
231 403
231 404
232 526
232 527
233 303
233 304
233 560
233 561
233 714
234 421
234 422
234 471
234 472
234 587
234 588
235 543
235 544
235 694
235 695
236 409
236 410
236 440
236 452
236 453
237 337
237 338
237 485
237 486
237 730
237 731
238 330
238 331
238 642
238 643
239 308
239 309
239 448
239 449
239 567
239 568
240 401
240 402
241 434
241 435
242 595
242 596
243 716
243 717
244 328
244 329
244 639
244 640
245 566
245 567
246 414
246 415
246 630
246 631
247 386
247 387
248 361
248 362
249 416
249 417
249 464
249 465
249 516
249 517
249 689
249 690
250 420
250 421
250 469
250 470
250 585
250 586
251 389
251 390
251 489
251 490
251 551
251 552
252 343
252 344
252 601
252 602
253 353
253 354
254 633
254 634
255 428
255 429
255 483
255 484
255 594
255 595
256 581
256 582
256 728
256 729
257 377
257 378
258 336
258 337
258 480
258 481
258 593
258 594
259 339
259 340
260 612
260 613
260 679
260 680
260 720
260 721
261 323
261 324
261 577
261 578
262 289
262 290
262 545
262 546
262 652
262 653
262 698
262 699
263 395
263 396
264 608
264 609
265 284
265 285
265 537
265 538
266 430
266 431
266 437
266 438
266 490
266 491
266 596
266 597
267 300
267 301
267 712
267 713
267 740
267 741
268 649
268 650
269 597
269 598
270 271
271 272
272 273
273 274
274 275
275 276
276 277
277 278
278 279
279 280
280 281
281 282
282 283
283 284
284 285
285 286
286 287
287 288
288 289
289 290
290 291
291 292
292 293
293 294
294 295
295 296
296 297
297 298
298 299
299 300
300 301
301 302
302 303
303 304
304 305
305 306
306 307
307 308
308 309
309 310
310 311
311 312
312 313
313 314
314 315
315 316
316 317
317 318
318 319
319 320
320 321
321 322
322 323
323 324
324 325
325 326
326 327
327 328
328 329
329 330
330 331
331 332
332 333
333 334
334 335
335 336
336 337
337 338
338 339
339 340
340 341
341 342
342 343
343 344
344 345
345 346
346 347
347 348
348 349
349 350
350 351
351 352
352 353
353 354
354 355
355 356
356 357
357 358
358 359
359 360
360 361
361 362
362 363
363 364
364 365
365 366
366 367
367 368
368 369
369 370
370 371
371 372
372 373
373 374
374 375
375 376
376 377
377 378
378 379
379 380
380 381
381 382
382 383
383 384
384 385
385 386
386 387
387 388
388 389
389 390
390 391
391 392
392 393
393 394
394 395
395 396
396 397
397 398
398 399
399 400
400 401
401 402
402 403
403 404
404 405
405 406
406 407
407 408
408 409
409 410
410 411
411 412
412 413
413 414
414 415
415 416
416 417
417 418
418 419
419 420
420 421
421 422
422 423
423 424
424 425
425 426
426 427
427 428
428 429
429 430
430 431
431 432
432 433
433 434
434 435
435 436
437 438
438 439
439 440
442 443
443 444
444 445
445 446
446 447
447 448
448 449
449 450
450 451
451 452
452 453
453 454
454 455
455 456
456 457
457 458
458 459
459 460
460 461
461 462
462 463
463 464
464 465
465 466
466 467
467 468
468 469
469 470
470 471
471 472
472 473
473 474
474 475
475 476
476 477
477 478
478 479
479 480
480 481
481 482
482 483
483 484
484 485
485 486
486 487
487 488
488 489
489 490
490 491
491 492
492 493
493 494
494 495
495 496
496 497
497 498
498 499
499 500
500 501
502 503
503 504
504 505
505 506
506 507
507 508
508 509
509 510
510 511
511 512
512 513
513 514
514 515
515 516
516 517
517 518
518 519
520 521
521 522
522 523
523 524
524 525
525 526
526 527
527 528
528 529
529 530
530 531
531 532
532 533
533 534
534 535
535 536
536 537
537 538
538 539
539 540
540 541
541 542
542 543
543 544
544 545
545 546
546 547
547 548
548 549
549 550
550 551
551 552
552 553
553 554
554 555
555 556
556 557
557 558
558 559
559 560
560 561
561 562
562 563
563 564
564 565
565 566
566 567
567 568
568 569
569 570
570 571
571 572
572 573
573 574
574 575
575 576
576 577
577 578
578 579
579 580
580 581
581 582
582 583
583 584
584 585
585 586
586 587
587 588
588 589
589 590
590 591
591 592
592 593
593 594
594 595
595 596
596 597
597 598
598 599
599 600
600 601
601 602
602 603
603 604
604 605
605 606
607 608
608 609
609 610
610 611
611 612
612 613
613 614
614 615
615 616
616 617
617 618
618 619
619 620
620 621
621 622
622 623
623 624
624 625
625 626
626 627
627 628
628 629
629 630
630 631
631 632
632 633
633 634
634 635
635 636
636 637
637 638
638 639
639 640
640 641
641 642
642 643
643 644
644 645
645 646
646 647
647 648
648 649
649 650
650 651
651 652
652 653
653 654
654 655
655 656
656 657
657 658
658 659
659 660
660 661
661 662
662 663
663 664
664 665
665 666
666 667
667 668
668 669
669 670
670 671
671 672
672 673
673 674
674 675
676 677
677 678
678 679
679 680
680 681
681 682
682 683
683 684
684 685
685 686
686 687
687 688
688 689
689 690
690 691
691 692
692 693
693 694
694 695
695 696
696 697
697 698
698 699
699 700
700 701
701 702
702 703
703 704
704 705
705 706
706 707
707 708
708 709
709 710
710 711
711 712
712 713
713 714
715 716
716 717
717 718
718 719
719 720
720 721
721 722
722 723
723 724
724 725
725 726
726 727
727 728
728 729
730 731
731 732
732 733
733 734
734 735
735 736
736 737
737 738
738 739
739 740
740 741
741 742
